4 
5  21 51 
6  06 21 28 36 44 51 59 
7  06 14 21 29 36 44 51 59 
8  06 14 21 29 36 44 51 59 
9  06 14 21 29 36 44 51 59 
10  06 14 21 29 36 44 51 59 
11  06 14 21 29 36 44 51 59 
12  06 14 21 29 36 44 51 59 
13  06 15 22 30 37 45 52 
14  00 07 15 22 30 37 45 52 
15  00 07 15 22 30 37 45 52 
16  00 07 15 22 30 37 45 52 
17  00 07 15 22 30 37 45 52 
18  00 07 15 22 30 37 45 52 
19  00 07 14 21 29 36 44 51 59 
20  06 14 21 29 36 47 
21  02 17 32 47 
22  02 16 31 42 57 
23  12 27 42 
0 
